(set-logic DTLIA)
(define-fun max ((x Int) (y Int)) Int (ite (>= x y) x y))
(synth-fun f0 ((x46 Int) (x47 Int)) Int ((Ix Int) (Ic Int))
 ((Ix Int (Ic x46 x47 (- Ix) (+ Ix Ix) (max Ix Ix))) (Ic Int ((Constant Int)))))
(declare-var i Int)
(declare-var i1364 Int)
(declare-var i1365 Int)
(constraint (or (not (= i1364 i1365)) (= (+ 1 (max i1364 i1365)) (+ i (f0 i i1364)))))
(check-synth)
